\ LP format - for model browsing. Use MPS format to capture full model detail.
Minimize
  - x0 + 5 x1 + 3 x2 + 2 x3 - x4
Subject To
 constr(0): - x0 + 3 x1 - 2 x2 - 5 x3 <= 20
 constr(1): 4 x0 + 3 x1 + x3 <= 3
 constr(2): - x1 - 4 x2 + 5 x3 >= -18
Bounds
 x0 <= 5
 x1 <= 4
 x2 <= 5
 x3 <= 2
 x4 <= 5
End
